CMD:
./solvers/bin/cadical --plain --no-reduce -t 1600 ./data/cnfs//intel056/intel056.44.cnf

c --- [ banner ] -------------------------------------------------------------
c 
c CaDiCaL SAT Solver
c Copyright (c) 2016-2024
c A. Biere, M. Fleury, N. Froleyks, K. Fazekas, F. Pollitt, T. Faller
c JKU Linz, University of Freiburg, TU Wien
c 
c Version 2.1.3 5296d3d2a9bf48c154ab2acb5e44625776d821bf
c g++ (Gentoo 12.3.1_p20230526 p2) 12.3.1 20230526 -Wall -Wextra -O3 -DNDEBUG
c Sat Aug 9 07:26:21 PDT 2025 Linux cedar2.int.cedar.computecanada.ca 5.14.0-362.24.2.el9_3.x86_64 x86_64
c 
c --- [ limit ] --------------------------------------------------------------
c 
c setting time limit to 1600 seconds real time (due to '-t 1600')
c 
c --- [ parsing input ] ------------------------------------------------------
c 
c reading DIMACS file from './data/cnfs//intel056/intel056.44.cnf'
c opening file to read './data/cnfs//intel056/intel056.44.cnf'
c found 'p cnf 121941 324441' header
c parsed 324441 clauses in 0.06 seconds process time
c 
c --- [ options ] ------------------------------------------------------------
c 
c   --compact=false                (different from default 'true')
c   --decompose=false              (different from default 'true')
c   --deduplicate=false            (different from default 'true')
c   --elim=false                   (different from default 'true')
c   --probe=false                  (different from default 'true')
c   --reduce=false                 (different from default 'true')
c   --subsume=false                (different from default 'true')
c   --ternary=false                (different from default 'true')
c   --transred=false               (different from default 'true')
c   --vivify=false                 (different from default 'true')
c 
c --- [ solving ] ------------------------------------------------------------
c 
c time measured in process time since initialization
c 
c  seconds  reductions  redundant  irredundant
c         MB    restarts       trail       variables
c          level   conflicts       glue         remaining
c 
c *  0.06 57  0 0   0    0    0  0% 0 322266 84025 69%
c {  0.08 58  0 0   0    0    0  0% 0 322266 84025 69%
c i  0.09 58 1408 0   0   10    9 49% 1 322266 83964 69%
c i  0.09 58 1785 0   0   18   16 54% 1 322266 83858 69%
c i  0.09 58 2290 0   1   30   25 58% 2 322266 83759 69%
c i  0.09 58 1433 0   1   48   39 49% 2 322266 83751 69%
c i  0.12 58 450 0  22  263  239 43% 2 322266 83691 69%
c i  0.14 58 265 0  46  489  429 39% 3 322266 83682 69%
c i  0.14 58 222 0  46  594  523 38% 3 322266 83667 69%
c }  0.19 59 167 0  68 1000  882 38% 3 322266 83667 69%
c [  0.19 59  0 0  68 1000  882  0% 0 322266 83667 69%
c O  0.22 59 2660 0  68 1002  884 58% 5 322266 83667 69%
c ]  0.38 59 1648 0  69 3002 2707 52% 11 322266 83667 69%
c {  0.38 59 167 0  69 3002 2707 38% 3 322266 83667 69%
c F  0.38 59 167 0  69 3003 2708 38% 3 322266 83667 69%
c i  0.43 59 152 0 136 3352 3018 38% 3 322266 83629 69%
c i  0.43 59 151 0 137 3359 3022 38% 3 322266 83622 69%
c i  0.49 59 220 0 149 3543 3183 39% 3 322266 83608 69%
c i  0.50 59 216 0 156 3574 3210 39% 3 322266 83600 69%
c i  0.52 59 219 0 166 3703 3327 40% 3 322266 83593 69%
c 
c  seconds   reductions  redundant  irredundant
c         MB     restarts       trail       variables
c           level   conflicts       glue         remaining
c 
c i  0.58 59 191 0 241 4188 3764 39% 3 322266 83586 69%
c i  0.59 59 190 0 246 4204 3778 39% 3 322266 83576 69%
c i  0.59 59 188 0 256 4238 3811 39% 3 322266 83555 69%
c i  0.60 59 185 0 264 4285 3848 39% 3 322266 83549 69%
c i  0.62 59 183 0 270 4432 3974 40% 3 322266 83497 68%
c i  0.62 59 183 0 270 4436 3976 40% 3 322266 83480 68%
c #  0.81 60 132 0 546 6006 5375 38% 3 322266 83480 68%
c }  0.92 60 116 0 692 7002 6265 38% 3 322266 83480 68%
c [  0.92 60 1648 0 692 7002 6265 52% 11 322266 83480 68%
c I  1.19 60 843 0 694 10008 9052 51% 10 322266 83480 68%
c ]  1.66 62 519 0 697 15003 13730 49% 15 322266 83480 68%
c {  1.66 62 116 0 697 15003 13730 38% 3 322266 83480 68%
c B  1.67 62 116 0 699 15010 13737 38% 3 322266 83480 68%
c i  1.84 62 106 0 923 15935 14580 38% 4 322266 83473 68%
c i  1.97 62 100 0 1089 16656 15246 38% 4 322266 83466 68%
c i  1.97 62 100 0 1089 16657 15246 38% 4 322266 83451 68%
c i  2.22 63 91 0 1415 18309 16755 38% 4 322266 83444 68%
c i  2.27 63 88 0 1490 18756 17160 38% 4 322266 83437 68%
c i  2.30 63 88 0 1511 18914 17299 38% 4 322266 83431 68%
c W  2.69 65 82 0 1850 21011 19129 37% 4 214528 83431 68%
c 
c  seconds  reductions     redundant  irredundant
c         MB    restarts          trail       variables
c          level     conflicts        glue         remaining
c 
c i  2.98 65 79 0 2138 22846 20787 38% 4 214528 83426 68%
c F  3.74 65 71 0 2926 28013 25472 37% 5 214528 83426 68%
c }  4.28 65 69 0 3403 31003 28218 38% 5 214528 83426 68%
c [  4.28 65 519 0 3403 31003 28218 49% 15 214528 83426 68%
c i  4.66 65 413 0 3404 34038 31020 47% 15 214528 83416 68%
c B  4.87 65 369 0 3406 36015 32869 46% 15 214528 83416 68%
c W  5.74 78 282 0 3410 45018 41239 46% 16 214474 83416 68%
c O  6.69 78 217 0 3412 55022 50543 44% 21 214474 83416 68%
c ]  7.42 78 189 0 3418 63006 58049 44% 20 214474 83416 68%
c {  7.42 78 69 0 3418 63006 58049 38% 5 214474 83416 68%
c B  8.11 78 67 0 4081 66024 60821 37% 5 214474 83416 68%
c i  8.36 78 65 0 4272 67815 62444 37% 5 214474 83409 68%
c W 10.43 83 60 0 5917 78026 71799 37% 6 214452 83409 68%
c i 12.20 83 55 0 7509 89891 82530 37% 6 214452 83408 68%
c # 12.36 83 55 0 7632 91027 83529 37% 6 214452 83408 68%
c i 12.76 83 51 0 8146 96144 88018 37% 6 214452 83405 68%
c i 12.79 83 50 0 8164 96605 88389 37% 6 214452 83403 68%
c i 12.84 83 50 0 8179 97464 89075 37% 6 214452 83302 68%
c i 12.84 83 50 0 8179 97473 89082 37% 6 214452 83301 68%
c i 12.85 83 49 0 8179 97728 89302 37% 6 214452 83221 68%
c 
c  seconds  reductions     redundant  irredundant
c         MB    restarts          trail       variables
c          level     conflicts        glue         remaining
c 
c i 12.85 83 49 0 8179 97744 89316 37% 6 214452 83207 68%
c i 12.85 83 49 0 8179 97750 89318 37% 6 214452 83200 68%
c i 12.85 83 49 0 8179 97780 89336 37% 6 214452 83069 68%
c i 12.85 83 49 0 8179 97801 89346 37% 6 214452 82999 68%
c } 12.86 83 49 0 8179 97803 89346 37% 6 214452 81966 67%
c 0 12.86 83 49 0 8179 97803 89346 37% 6 214452 81966 67%
c 
c --- [ result ] -------------------------------------------------------------
c 
s UNSATISFIABLE
c 
c --- [ run-time profiling ] -------------------------------------------------
c 
c process time taken by individual solving procedures
c (percentage relative to process time for solving)
c 
c        12.79  100.00% search
c         8.54   66.77% unstable
c         3.99   31.22% stable
c         0.24    1.84% walk
c         0.06    0.47% parse
c         0.02    0.17% lucky
c         0.00    0.00% simplify
c   =================================
c        12.79   99.53% solve
c 
c last line shows process time for solving
c (percentage relative to total process time)
c 
c --- [ statistics ] ---------------------------------------------------------
c 
c chronological:             35988        36.80 %  of conflicts
c conflicts:                 97803      7644.09    per second
c decisions:                755062     59014.18    per second
c fixed:                     39975        32.78 %  of all variables
c learned:                   94142        96.26 %  per conflict
c learned_lits:            3309689       100.00 %  learned literals
c minimized:                     0         0.00 %  learned literals
c shrunken:                 439272        13.27 %  learned literals
c minishrunken:             487456        14.73 %  learned literals
c otfs:                        727         0.74 %  of conflict
c propagations:          133577082        10.44 M  per second
c rephased:                     13      7523.31    interval
c restarts:                   8179        11.96    interval
c stabilizing:                   3        42.94 %  of conflicts
c subsumed:                   4699         1.13 %  of all clauses
c strengthened:                710         0.17 %  of all clauses
c walked:                        3     32601.00    interval
c 
c seconds are measured in process time for solving
c 
c --- [ resources ] ----------------------------------------------------------
c 
c total process time since initialization:        12.86    seconds
c total real time since initialization:           12.93    seconds
c maximum resident set size of process:           92.93    MB
c 
c --- [ shutting down ] ------------------------------------------------------
c 
c exit 20
